Gurobi 12.0.0:   lim:time = 14400

  mip:bestbound = 1

Set parameter LogToConsole to value 1

  tech:outlev = 1

Set parameter Cuts to value 3

  cut:cuts = 3

Set parameter Presolve to value 2

  pre:solve = 2

Set parameter MIPFocus to value 2

  mip:focus = 2

Set parameter Symmetry to value 2

  mip:symmetry = 2

Set parameter InfUnbdInfo to value 1

Gurobi Optimizer version 12.0.0 build v12.0.0rc1 (win64 - Windows 11.0 (26100.2))



CPU model: 11th Gen Intel(R) Core(TM) i7-11700 @ 2.50GHz, instruction set [SSE2|AVX|AVX2|AVX512]

Thread count: 8 physical cores, 16 logical processors, using up to 16 threads



Non-default parameters:

TimeLimit  14400

MIPFocus  2

Symmetry  2

Cuts  3

InfUnbdInfo  1

Presolve  2



Optimize a model with 411 rows, 788 columns and 4492 nonzeros

Model fingerprint: 0xe3eaf518

Model has 4 quadratic constraints

Variable types: 36 continuous, 752 integer (0 binary)

Coefficient statistics:

  Matrix range     [1e+00, 1e+05]

  QMatrix range    [1e+00, 1e+00]

  QLMatrix range   [1e+01, 1e+01]

  Objective range  [3e+00, 1e+02]

  Bounds range     [1e+00, 1e+02]

  RHS range        [1e+00, 1e+05]

  QRHS range       [1e+02, 1e+02]

Presolve removed 40 rows and 94 columns

Presolve time: 0.35s

Presolved: 879 rows, 1110 columns, 6939 nonzeros

Variable types: 14 continuous, 1096 integer (945 binary)

Root relaxation presolve removed 43 rows and 0 columns

Root relaxation presolved: 475 rows, 864 columns, 7229 nonzeros





Root relaxation: objective 9.103525e+01, 138 iterations, 0.02 seconds (0.01 work units)



    Nodes    |    Current Node    |     Objective Bounds      |     Work

 Expl Unexpl |  Obj  Depth IntInf | Incumbent    BestBd   Gap | It/Node Time



     0     0   91.03525    0   43          -   91.03525      -     -    0s

H    0     0                     536.3300000   91.03525  83.0%     -    0s

H    0     0                     475.7000000  216.91028  54.4%     -    0s

     0     0  221.41030    0   42  475.70000  221.41030  53.5%     -    0s

     0     0  221.41030    0   38  475.70000  221.41030  53.5%     -    0s

H    0     0                     445.7100000  221.41030  50.3%     -    0s

H    0     0                     438.5100000  221.41030  49.5%     -    0s

     0     0  221.41222    0   23  438.51000  221.41222  49.5%     -    0s

     0     0  222.22000    0   33  438.51000  222.22000  49.3%     -    0s

H    0     0                     435.7500000  222.22000  49.0%     -    1s

H    0     0                     432.7700000  222.22000  48.7%     -    1s

H    0     0                     425.3600000  222.22000  47.8%     -    1s

     0     0  244.83159    0   25  425.36000  244.83159  42.4%     -    1s

H    0     0                     421.7200000  247.39000  41.3%     -    1s

     0     0  247.39000    0   20  421.72000  247.39000  41.3%     -    1s

     0     0  247.39063    0   51  421.72000  247.39063  41.3%     -    1s

     0     0  247.39063    0   51  421.72000  247.39063  41.3%     -    1s

     0     2  247.39063    0   51  421.72000  247.39063  41.3%     -    1s

H   30    57                     412.6500000  247.39063  40.0%  17.8    1s

H   35    57                     412.4200000  247.39063  40.0%  16.0    1s

H   39    57                     412.2100000  247.39063  40.0%  14.8    1s

H  248   198                     405.0300000  248.02590  38.8%  11.9    1s

H  317   260                     403.1100000  248.02590  38.5%  11.8    1s

H 1081   663                     400.9900000  249.29591  37.8%  13.0    2s

  2177  1176  294.64352    6   55  400.99000  292.54226  27.0%  13.2    5s

  5345  1376  383.73845   55   18  400.99000  298.38780  25.6%  17.4   10s

 16336  4002  314.81667   41   32  400.99000  311.44895  22.3%  16.1   15s

 27716  5816  321.75500   46   16  400.99000  318.79402  20.5%  15.9   20s

 39766  6874 infeasible   40       400.99000  325.23483  18.9%  15.6   25s

 49547  7281  390.04112   36   26  400.99000  330.04941  17.7%  15.3   30s

 58288  6988  338.22801   45   30  400.99000  334.79896  16.5%  15.2   35s

 67010  6126     cutoff   51       400.99000  342.95000  14.5%  15.0   40s

 78382  3997  355.06183   48   13  400.99000  354.56230  11.6%  14.8   45s



Cutting planes:

  Learned: 4

  Gomory: 40

  Lift-and-project: 5

  Cover: 110

  Implied bound: 31

  Projected implied bound: 5

  Clique: 68

  MIR: 34

  StrongCG: 8

  Flow cover: 343

  Inf proof: 106

  Zero half: 390

  RLT: 32

  Relax-and-lift: 105



Explored 89969 nodes (1296701 simplex iterations) in 49.29 seconds (17.71 work units)

Thread count was 16 (of 16 available processors)



Solution count 10: 400.99 400.99 403.11 ... 432.77



Optimal solution found (tolerance 1.00e-04)

Best objective 4.009900000000e+02, best bound 4.009900000000e+02, gap 0.0000%

-----RESULTS INFO-----
running_time:  49.438
TC.best_bound:  400.99
TC:  400.98999999999995
MIP Gap (%):  1.4175769685231059e-14
=== Vehicle Routes ===
Vehicle 1: 0 → 3
Vehicle 1: 1 → 19
Vehicle 1: 3 → 18
Vehicle 1: 9 → 1
Vehicle 1: 18 → 9
Vehicle 2: 0 → 13
Vehicle 2: 2 → 19
Vehicle 2: 13 → 14
Vehicle 2: 14 → 2
Vehicle 3: 0 → 19
Vehicle 4: 0 → 19

=== Full Vehicle Routes ===
Vehicle 1: 0 → 3 → 18 → 9 → 1 → 0 (58<100)
Vehicle 2: 0 → 13 → 14 → 2 → 0 (95<100)
Vehicle 3: 0 → 0 (0<100)
Vehicle 4: 0 → 0 (0<100)
Arc used by MRT line: y variables:
Customer assigment to PL: u variables:
4 14
5 14
6 14
7 14
8 18
10 13
11 14
Node is served by regular vehicle: g variables:
1
2
3
9
18
13
14
Customer assigment to Home delivery: gm variables:
1
2
3
9
Node total demands: ntd variables:
1 13 1
2 13 1
3 12 1
8 0 0
9 10 1
10 0 0
11 0 0
18 23 1
12 0 0
13 12 1
14 70 1
15 0 0
16 0 0
17 0 0
Customer's demand delivered to PL: l variables:
4
5
6
7
8
10
11
Lockers load <= capacity:
23 <= 79
0 <= 81
12 <= 83
70 <= 100
0 <= 99
0 <= 94
0 <= 86
